c CNF file corresponding to a (partial) station packing problem.
p cnf 5251 229
5235 5236 5237 5238 5239 5240 5241 5242 5243 5244 5245 5246 5247 5248 5249 5250 5251 0
-5235 -5236 0
-5235 -5237 0
-5235 -5238 0
-5235 -5239 0
-5235 -5240 0
-5235 -5241 0
-5235 -5242 0
-5235 -5243 0
-5235 -5244 0
-5235 -5245 0
-5235 -5246 0
-5235 -5247 0
-5235 -5248 0
-5235 -5249 0
-5235 -5250 0
-5235 -5251 0
-5236 -5237 0
-5236 -5238 0
-5236 -5239 0
-5236 -5240 0
-5236 -5241 0
-5236 -5242 0
-5236 -5243 0
-5236 -5244 0
-5236 -5245 0
-5236 -5246 0
-5236 -5247 0
-5236 -5248 0
-5236 -5249 0
-5236 -5250 0
-5236 -5251 0
-5237 -5238 0
-5237 -5239 0
-5237 -5240 0
-5237 -5241 0
-5237 -5242 0
-5237 -5243 0
-5237 -5244 0
-5237 -5245 0
-5237 -5246 0
-5237 -5247 0
-5237 -5248 0
-5237 -5249 0
-5237 -5250 0
-5237 -5251 0
-5238 -5239 0
-5238 -5240 0
-5238 -5241 0
-5238 -5242 0
-5238 -5243 0
-5238 -5244 0
-5238 -5245 0
-5238 -5246 0
-5238 -5247 0
-5238 -5248 0
-5238 -5249 0
-5238 -5250 0
-5238 -5251 0
-5239 -5240 0
-5239 -5241 0
-5239 -5242 0
-5239 -5243 0
-5239 -5244 0
-5239 -5245 0
-5239 -5246 0
-5239 -5247 0
-5239 -5248 0
-5239 -5249 0
-5239 -5250 0
-5239 -5251 0
-5240 -5241 0
-5240 -5242 0
-5240 -5243 0
-5240 -5244 0
-5240 -5245 0
-5240 -5246 0
-5240 -5247 0
-5240 -5248 0
-5240 -5249 0
-5240 -5250 0
-5240 -5251 0
-5241 -5242 0
-5241 -5243 0
-5241 -5244 0
-5241 -5245 0
-5241 -5246 0
-5241 -5247 0
-5241 -5248 0
-5241 -5249 0
-5241 -5250 0
-5241 -5251 0
-5242 -5243 0
-5242 -5244 0
-5242 -5245 0
-5242 -5246 0
-5242 -5247 0
-5242 -5248 0
-5242 -5249 0
-5242 -5250 0
-5242 -5251 0
-5243 -5244 0
-5243 -5245 0
-5243 -5246 0
-5243 -5247 0
-5243 -5248 0
-5243 -5249 0
-5243 -5250 0
-5243 -5251 0
-5244 -5245 0
-5244 -5246 0
-5244 -5247 0
-5244 -5248 0
-5244 -5249 0
-5244 -5250 0
-5244 -5251 0
-5245 -5246 0
-5245 -5247 0
-5245 -5248 0
-5245 -5249 0
-5245 -5250 0
-5245 -5251 0
-5246 -5247 0
-5246 -5248 0
-5246 -5249 0
-5246 -5250 0
-5246 -5251 0
-5247 -5248 0
-5247 -5249 0
-5247 -5250 0
-5247 -5251 0
-5248 -5249 0
-5248 -5250 0
-5248 -5251 0
-5249 -5250 0
-5249 -5251 0
-5250 -5251 0
1 2 3 4 5 6 7 8 9 10 11 12 13 14 0
-1 -2 0
-1 -3 0
-1 -4 0
-1 -5 0
-1 -6 0
-1 -7 0
-1 -8 0
-1 -9 0
-1 -10 0
-1 -11 0
-1 -12 0
-1 -13 0
-1 -14 0
-2 -3 0
-2 -4 0
-2 -5 0
-2 -6 0
-2 -7 0
-2 -8 0
-2 -9 0
-2 -10 0
-2 -11 0
-2 -12 0
-2 -13 0
-2 -14 0
-3 -4 0
-3 -5 0
-3 -6 0
-3 -7 0
-3 -8 0
-3 -9 0
-3 -10 0
-3 -11 0
-3 -12 0
-3 -13 0
-3 -14 0
-4 -5 0
-4 -6 0
-4 -7 0
-4 -8 0
-4 -9 0
-4 -10 0
-4 -11 0
-4 -12 0
-4 -13 0
-4 -14 0
-5 -6 0
-5 -7 0
-5 -8 0
-5 -9 0
-5 -10 0
-5 -11 0
-5 -12 0
-5 -13 0
-5 -14 0
-6 -7 0
-6 -8 0
-6 -9 0
-6 -10 0
-6 -11 0
-6 -12 0
-6 -13 0
-6 -14 0
-7 -8 0
-7 -9 0
-7 -10 0
-7 -11 0
-7 -12 0
-7 -13 0
-7 -14 0
-8 -9 0
-8 -10 0
-8 -11 0
-8 -12 0
-8 -13 0
-8 -14 0
-9 -10 0
-9 -11 0
-9 -12 0
-9 -13 0
-9 -14 0
-10 -11 0
-10 -12 0
-10 -13 0
-10 -14 0
-11 -12 0
-11 -13 0
-11 -14 0
-12 -13 0
-12 -14 0
-13 -14 0
